WARNING: for repeatability, setting FPU to use double precision
============================[ Problem Statistics ]=============================
|                                                                             |
|  Number of variables:           100                                         |
|  Number of clauses:             449                                         |
|  Parse time:                   0.00 s                                       |
|  Eliminated clauses:           0.00 Mb                                      |
|  Simplification time:          0.00 s                                       |
|                                                                             |
============================[ Search Statistics ]==============================
| Conflicts |          ORIGINAL         |          LEARNT          | Progress |
|           |    Vars  Clauses Literals |    Limit  Clauses Lit/Cl |          |
===============================================================================
|       100 |      98      446     1352 |      163      100      7 |  0.010 % |
|       250 |      98      446     1352 |      179      167      7 |  0.020 % |
===============================================================================
restarts              : 3
conflicts             : 375            (92433 /sec)
decisions             : 469            (0.00 % random) (115603 /sec)
propagations          : 9311           (2295046 /sec)
conflict literals     : 2652           (20.50 % deleted)
Memory used           : 13.00 MB
CPU time              : 0.004057 s

SATISFIABLE
